200
120
100
100
99
99
99
99
99
97
96
96
96
95
95
95
94
94
94
94
93
93
93
93
93
92
92
92
92
91
91
88
88
88
87
87
86
85
85
85
83
83
82
82
82
81
81
80
80
79
79
78
78
77
77
77
77
76
74
74
74
73
71
70
69
68
67
67
67
67
66
66
66
66
66
65
65
65
65
64
64
64
64
64
64
63
63
62
61
61
60
60
60
59
58
57
56
56
56
56
55
55
55
54
54
54
53
53
52
52
52
51
50
49
48
48
47
47
45
45
44
44
44
44
43
43
43
43
42
41
41
40
40
40
40
40
40
40
38
37
37
37
35
35
33
33
33
31
31
30
30
28
27
25
25
25
24
24
24
23
22
22
20
20
19
19
19
18
18
18
18
17
16
15
14
14
13
13
12
11
11
11
10
10
10
8
8
7
7
7
6
5
5
5
5
5
3
2
2
2
1
1
